\ENCODING=ISO-8859-1
\Problem name: ilog.cplex

Minimize
 obj1: 90449 x1 + 109117 x2 + 102604 x3 + 105057 x4 + 99636 x5 + 106538 x6
       + 108638 x7 + 106329 x8 + 91912 x9 + 97935 x10 + 103983 x11 + 93725 x12
       + 92327 x13 + 108621 x14 + 95171 x15 + 105620 x16 + 106937 x17
       + 101902 x18 + 107202 x19 + 97016 x20 + 96180 x21 + 103354 x22
       + 97751 x23 + 97496 x24 + 109470 x25 + 105472 x26 + 92332 x27
       + 99729 x28 + 106509 x29 + 97677 x30 + 93074 x31 + 96034 x32 + 96524 x33
       + 109389 x34 + 104716 x35 + 101002 x36 + 107851 x37 + 97141 x38
       + 97999 x39 + 109324 x40 + 97224 x41 + 90651 x42 + 92884 x43 + 99648 x44
       + 100624 x45 + 97312 x46 + 91793 x47 + 107726 x48 + 95695 x49
       + 109744 x50 + 106842 x51 + 101990 x52 + 92724 x53 + 104760 x54
       + 105196 x55 + 103102 x56 + 104887 x57 + 92881 x58 + 104786 x59
       + 104531 x60 + 90201 x61 + 92388 x62 + 100556 x63 + 95186 x64
       + 106228 x65 + 98092 x66 + 99755 x67 + 93916 x68 + 96973 x69
       + 107851 x70 + 93862 x71 + 98598 x72 + 90953 x73 + 91492 x74
       + 103468 x75 + 104058 x76 + 94400 x77 + 99541 x78 + 104669 x79
       + 102669 x80 + 92214 x81 + 98203 x82 + 96289 x83 + 105543 x84
       + 107910 x85 + 101407 x86 + 98742 x87 + 91960 x88 + 103016 x89
       + 90767 x90 + 107326 x91 + 109997 x92 + 96258 x93 + 109954 x94
       + 95460 x95 + 92266 x96 + 93353 x97 + 91221 x98 + 96670 x99 + 97280 x100
       + 99155 x101 + 97180 x102 + 96050 x103 + 92355 x104 + 106179 x105
       + 98464 x106 + 102489 x107 + 91583 x108 + 92259 x109 + 105585 x110
       + 98468 x111 + 99607 x112 + 94332 x113 + 107689 x114 + 107285 x115
       + 99230 x116 + 103506 x117 + 107459 x118 + 107467 x119 + 104975 x120
       + 98078 x121 + 100420 x122 + 109599 x123 + 91155 x124 + 92497 x125
       + 104009 x126 + 108112 x127 + 102908 x128 + 107921 x129 + 99722 x130
       + 90314 x131 + 106827 x132 + 107251 x133 + 108447 x134 + 92510 x135
       + 97368 x136 + 100334 x137 + 106409 x138 + 96172 x139 + 95401 x140
       + 93488 x141 + 107159 x142 + 95919 x143 + 96047 x144 + 91592 x145
       + 103654 x146 + 105430 x147 + 104402 x148 + 100683 x149 + 103708 x150
       + 101959 x151 + 99721 x152 + 91748 x153 + 98077 x154 + 91987 x155
       + 109826 x156 + 94686 x157 + 102595 x158 + 93322 x159 + 109048 x160
       + 91210 x161 + 98859 x162 + 109848 x163 + 107592 x164 + 99741 x165
       + 95910 x166 + 108417 x167 + 101888 x168 + 106377 x169 + 95703 x170
       + 109545 x171 + 108343 x172 + 107153 x173 + 98350 x174 + 95620 x175
       + 97341 x176 + 93203 x177 + 95896 x178 + 106307 x179 + 106305 x180
       + 98327 x181 + 93044 x182 + 105719 x183 + 101285 x184 + 96223 x185
       + 109223 x186 + 91377 x187 + 102789 x188 + 102868 x189 + 97977 x190
       + 91117 x191 + 93493 x192 + 108508 x193 + 106842 x194 + 100845 x195
       + 102958 x196 + 93253 x197 + 93738 x198 + 93373 x199 + 97656 x200
       + 93350 x201 + 92725 x202 + 98921 x203 + 97897 x204 + 91277 x205
       + 107365 x206 + 107123 x207 + 100738 x208 + 99623 x209 + 99012 x210
       + 103899 x211 + 99636 x212 + 97375 x213 + 91282 x214 + 101534 x215
       + 109718 x216 + 108966 x217 + 91426 x218 + 98643 x219 + 108578 x220
       + 104966 x221 + 96503 x222 + 99569 x223 + 99667 x224 + 106633 x225
       + 93933 x226 + 95328 x227 + 108895 x228 + 90264 x229 + 104510 x230
       + 90732 x231 + 99086 x232 + 101052 x233 + 91770 x234 + 91394 x235
       + 90558 x236 + 95564 x237 + 97989 x238 + 99025 x239 + 90322 x240
       + 96963 x241 + 104188 x242 + 103783 x243 + 97258 x244 + 107746 x245
       + 109167 x246 + 108353 x247 + 106140 x248 + 101037 x249 + 100893 x250
       + 92510 x251 + 104527 x252 + 92700 x253 + 109435 x254 + 94769 x255
       + 97116 x256 + 106344 x257 + 92320 x258 + 96865 x259 + 97076 x260
       + 95286 x261 + 91742 x262 + 108463 x263 + 103115 x264 + 95712 x265
       + 96889 x266 + 97125 x267 + 109066 x268 + 108109 x269 + 90759 x270
       + 97400 x271 + 103493 x272 + 105268 x273 + 108372 x274 + 90501 x275
       + 108133 x276 + 94508 x277 + 102575 x278 + 96824 x279 + 96589 x280
       + 94515 x281 + 108013 x282 + 107460 x283 + 96930 x284 + 108882 x285
       + 106395 x286 + 105417 x287 + 109693 x288 + 90848 x289 + 104305 x290
       + 92435 x291 + 106191 x292 + 96679 x293 + 98565 x294 + 103101 x295
       + 91186 x296 + 98767 x297 + 103607 x298 + 94358 x299 + 98619 x300
       + 99477 x301 + 95997 x302 + 96001 x303 + 92114 x304 + 96801 x305
       + 91569 x306 + 93218 x307 + 103250 x308 + 104438 x309 + 105377 x310
       + 103369 x311 + 104984 x312 + 93341 x313 + 99100 x314 + 103190 x315
       + 96902 x316 + 102048 x317 + 96324 x318 + 101618 x319 + 103156 x320
       + 106438 x321 + 98567 x322 + 95198 x323 + 108066 x324 + 107942 x325
       + 94705 x326 + 94037 x327 + 98384 x328 + 109085 x329 + 95520 x330
       + 90403 x331 + 106294 x332 + 100575 x333 + 104947 x334 + 97702 x335
       + 99879 x336 + 105114 x337 + 90093 x338 + 98847 x339 + 101139 x340
       + 109687 x341 + 93217 x342 + 109921 x343 + 105493 x344 + 90276 x345
       + 100585 x346 + 107563 x347 + 91333 x348 + 90806 x349 + 105492 x350
       + 95725 x351 + 108521 x352 + 108772 x353 + 91448 x354 + 99350 x355
       + 109765 x356 + 103599 x357 + 103003 x358 + 96950 x359 + 105843 x360
       + 99865 x361 + 99756 x362 + 93312 x363 + 105416 x364 + 106541 x365
       + 101033 x366 + 97021 x367 + 106762 x368 + 91845 x369 + 91260 x370
       + 102568 x371 + 99938 x372 + 95260 x373 + 107825 x374 + 106302 x375
       + 105749 x376 + 96602 x377 + 94467 x378 + 94898 x379 + 105755 x380
       + 109782 x381 + 95588 x382 + 103045 x383 + 96296 x384 + 109633 x385
       + 100980 x386 + 105636 x387 + 93946 x388 + 101674 x389 + 90163 x390
       + 108987 x391 + 109777 x392 + 106668 x393 + 90858 x394 + 95496 x395
       + 95510 x396 + 94550 x397 + 97078 x398 + 96605 x399 + 105858 x400
       + 98283 x401 + 100502 x402 + 98260 x403 + 99348 x404 + 103906 x405
       + 106098 x406 + 92642 x407 + 104931 x408 + 91447 x409 + 107546 x410
       + 102623 x411 + 101179 x412 + 109845 x413 + 105011 x414 + 97521 x415
       + 104879 x416 + 94601 x417 + 98143 x418 + 98724 x419 + 106754 x420
       + 97916 x421 + 109290 x422 + 90326 x423 + 91630 x424 + 93325 x425
       + 103893 x426 + 102695 x427 + 98559 x428 + 91799 x429 + 94843 x430
       + 106220 x431 + 98308 x432 + 108212 x433 + 106464 x434 + 99651 x435
       + 92346 x436 + 94535 x437 + 103408 x438 + 90291 x439 + 94847 x440
       + 109310 x441 + 99843 x442 + 101780 x443 + 107187 x444 + 101719 x445
       + 95180 x446 + 109242 x447 + 93046 x448 + 92921 x449 + 93982 x450
       + 99745 x451 + 103947 x452 + 105097 x453 + 102726 x454 + 104929 x455
       + 101617 x456 + 91199 x457 + 97196 x458 + 92918 x459 + 98575 x460
       + 104446 x461 + 102178 x462 + 101499 x463 + 94477 x464 + 91840 x465
       + 107908 x466 + 92029 x467 + 106966 x468 + 102785 x469 + 90117 x470
       + 103588 x471 + 97012 x472 + 90175 x473 + 98381 x474 + 107277 x475
       + 101995 x476 + 102021 x477 + 96567 x478 + 92192 x479 + 106181 x480
       + 97357 x481 + 100758 x482 + 91689 x483 + 98594 x484 + 105046 x485
       + 100656 x486 + 96216 x487 + 94231 x488 + 99586 x489 + 106780 x490
       + 97294 x491 + 106162 x492 + 94132 x493 + 97624 x494 + 106151 x495
       + 93243 x496 + 107689 x497 + 108496 x498 + 90072 x499 + 89354 x500
       + 43178 x501 + 37192 x502 + 38380 x503 + 36458 x504 + 38132 x505
       + 41111 x506 + 40737 x507 + 42915 x508 + 40430 x509 + 37791 x510
       + 38544 x511 + 36254 x512 + 41496 x513 + 38372 x514 + 37612 x515
       + 36070 x516 + 40493 x517 + 40636 x518 + 43629 x519 + 38013 x520
       + 43329 x521 + 38772 x522 + 41118 x523 + 40897 x524 + 37314 x525
       + 36417 x526 + 39663 x527 + 43469 x528 + 38235 x529 + 37097 x530
       + 40058 x531 + 37792 x532 + 36564 x533 + 36566 x534 + 36356 x535
       + 38973 x536 + 36209 x537 + 42683 x538 + 41833 x539 + 38466 x540
       + 38657 x541 + 36357 x542 + 39749 x543 + 42456 x544 + 41564 x545
       + 41694 x546 + 41319 x547 + 41809 x548 + 37784 x549 + 69357 x550
Subject To
 c1:   x1 + x10 - x11 + x27 - x31 - x37 - x39 - x44 - x46 + x50  = 0
 c2:   x51 + x60 - x61 + x77 - x81 - x87 - x89 - x94 - x96 + x100  = 0
 c3:   x101 + x110 - x111 + x127 - x131 - x137 - x139 - x144 - x146 + x150  = 0
 c4:   x151 + x160 - x161 + x177 - x181 - x187 - x189 - x194 - x196 + x200  = 0
 c5:   x201 + x210 - x211 + x227 - x231 - x237 - x239 - x244 - x246 + x250  = 0
 c6:   x251 + x260 - x261 + x277 - x281 - x287 - x289 - x294 - x296 + x300  = 0
 c7:   x301 + x310 - x311 + x327 - x331 - x337 - x339 - x344 - x346 + x350  = 1
 c8:   x351 + x360 - x361 + x377 - x381 - x387 - x389 - x394 - x396 + x400  = 0
 c9:   x401 + x410 - x411 + x427 - x431 - x437 - x439 - x444 - x446 + x450  = 0
 c10:  x451 + x460 - x461 + x477 - x481 - x487 - x489 - x494 - x496 + x500  = 1
 c11:  x3 + x8 + x24 - x32 + x38 - x41 - x42 + x45 + x47 - x48  = -1
 c12:  x53 + x58 + x74 - x82 + x88 - x91 - x92 + x95 + x97 - x98  = 0
 c13:  x103 + x108 + x124 - x132 + x138 - x141 - x142 + x145 + x147 - x148  = 0
 c14:  x153 + x158 + x174 - x182 + x188 - x191 - x192 + x195 + x197 - x198  = 0
 c15:  x203 + x208 + x224 - x232 + x238 - x241 - x242 + x245 + x247 - x248  = 0
 c16:  x253 + x258 + x274 - x282 + x288 - x291 - x292 + x295 + x297 - x298  = 0
 c17:  x303 + x308 + x324 - x332 + x338 - x341 - x342 + x345 + x347 - x348  = 0
 c18:  x353 + x358 + x374 - x382 + x388 - x391 - x392 + x395 + x397 - x398  = 0
 c19:  x403 + x408 + x424 - x432 + x438 - x441 - x442 + x445 + x447 - x448  = 0
 c20:  x453 + x458 + x474 - x482 + x488 - x491 - x492 + x495 + x497 - x498  = 0
 c21:  - x8 - x13 + x15 + x16 + x20 + x25 - x28 - x29 - x30 + x42 + x44  = 0
 c22:  - x58 - x63 + x65 + x66 + x70 + x75 - x78 - x79 - x80 + x92 + x94  = 1
 c23:  - x108 - x113 + x115 + x116 + x120 + x125 - x128 - x129 - x130 + x142
       + x144  = 0
 c24:  - x158 - x163 + x165 + x166 + x170 + x175 - x178 - x179 - x180 + x192
       + x194  = 0
 c25:  - x208 - x213 + x215 + x216 + x220 + x225 - x228 - x229 - x230 + x242
       + x244  = 1
 c26:  - x258 - x263 + x265 + x266 + x270 + x275 - x278 - x279 - x280 + x292
       + x294  = 0
 c27:  - x308 - x313 + x315 + x316 + x320 + x325 - x328 - x329 - x330 + x342
       + x344  = 0
 c28:  - x358 - x363 + x365 + x366 + x370 + x375 - x378 - x379 - x380 + x392
       + x394  = 0
 c29:  - x408 - x413 + x415 + x416 + x420 + x425 - x428 - x429 - x430 + x442
       + x444  = 0
 c30:  - x458 - x463 + x465 + x466 + x470 + x475 - x478 - x479 - x480 + x492
       + x494  = 0
 c31:  - x10 + x17 + x21 - x22 - x25 + x28 - x35 + x46 - x49  = 1
 c32:  - x60 + x67 + x71 - x72 - x75 + x78 - x85 + x96 - x99  = 0
 c33:  - x110 + x117 + x121 - x122 - x125 + x128 - x135 + x146 - x149  = 0
 c34:  - x160 + x167 + x171 - x172 - x175 + x178 - x185 + x196 - x199  = 0
 c35:  - x210 + x217 + x221 - x222 - x225 + x228 - x235 + x246 - x249  = -1
 c36:  - x260 + x267 + x271 - x272 - x275 + x278 - x285 + x296 - x299  = 0
 c37:  - x310 + x317 + x321 - x322 - x325 + x328 - x335 + x346 - x349  = 0
 c38:  - x360 + x367 + x371 - x372 - x375 + x378 - x385 + x396 - x399  = 0
 c39:  - x410 + x417 + x421 - x422 - x425 + x428 - x435 + x446 - x449  = 0
 c40:  - x460 + x467 + x471 - x472 - x475 + x478 - x485 + x496 - x499  = -1
 c41:  x2 + x5 + x6 - x9 - x14 - x18 + x34 + x35 - x45  = 0
 c42:  x52 + x55 + x56 - x59 - x64 - x68 + x84 + x85 - x95  = 0
 c43:  x102 + x105 + x106 - x109 - x114 - x118 + x134 + x135 - x145  = 1
 c44:  x152 + x155 + x156 - x159 - x164 - x168 + x184 + x185 - x195  = 1
 c45:  x202 + x205 + x206 - x209 - x214 - x218 + x234 + x235 - x245  = 0
 c46:  x252 + x255 + x256 - x259 - x264 - x268 + x284 + x285 - x295  = 1
 c47:  x302 + x305 + x306 - x309 - x314 - x318 + x334 + x335 - x345  = 0
 c48:  x352 + x355 + x356 - x359 - x364 - x368 + x384 + x385 - x395  = 0
 c49:  x402 + x405 + x406 - x409 - x414 - x418 + x434 + x435 - x445  = 0
 c50:  x452 + x455 + x456 - x459 - x464 - x468 + x484 + x485 - x495  = 0
 c51:  - x2 + x9 - x12 + x22 - x24 - x27 + x31 + x33  = 0
 c52:  - x52 + x59 - x62 + x72 - x74 - x77 + x81 + x83  = 0
 c53:  - x102 + x109 - x112 + x122 - x124 - x127 + x131 + x133  = 0
 c54:  - x152 + x159 - x162 + x172 - x174 - x177 + x181 + x183  = 0
 c55:  - x202 + x209 - x212 + x222 - x224 - x227 + x231 + x233  = 0
 c56:  - x252 + x259 - x262 + x272 - x274 - x277 + x281 + x283  = 0
 c57:  - x302 + x309 - x312 + x322 - x324 - x327 + x331 + x333  = 0
 c58:  - x352 + x359 - x362 + x372 - x374 - x377 + x381 + x383  = -1
 c59:  - x402 + x409 - x412 + x422 - x424 - x427 + x431 + x433  = -1
 c60:  - x452 + x459 - x462 + x472 - x474 - x477 + x481 + x483  = 0
 c61:  x4 - x5 - x7 + x13 - x21 + x32 + x37 - x38 + x40 - x50  = 0
 c62:  x54 - x55 - x57 + x63 - x71 + x82 + x87 - x88 + x90 - x100  = 0
 c63:  x104 - x105 - x107 + x113 - x121 + x132 + x137 - x138 + x140 - x150  = 0
 c64:  x154 - x155 - x157 + x163 - x171 + x182 + x187 - x188 + x190 - x200  = 0
 c65:  x204 - x205 - x207 + x213 - x221 + x232 + x237 - x238 + x240 - x250  = 0
 c66:  x254 - x255 - x257 + x263 - x271 + x282 + x287 - x288 + x290 - x300
        = -1
 c67:  x304 - x305 - x307 + x313 - x321 + x332 + x337 - x338 + x340 - x350  = 0
 c68:  x354 - x355 - x357 + x363 - x371 + x382 + x387 - x388 + x390 - x400  = 1
 c69:  x404 - x405 - x407 + x413 - x421 + x432 + x437 - x438 + x440 - x450  = 0
 c70:  x454 - x455 - x457 + x463 - x471 + x482 + x487 - x488 + x490 - x500  = 0
 c71:  x14 - x15 - x23 - x26 + x29 - x33 + x36 - x40 + x43 - x47  = 0
 c72:  x64 - x65 - x73 - x76 + x79 - x83 + x86 - x90 + x93 - x97  = 0
 c73:  x114 - x115 - x123 - x126 + x129 - x133 + x136 - x140 + x143 - x147  = 0
 c74:  x164 - x165 - x173 - x176 + x179 - x183 + x186 - x190 + x193 - x197
        = -1
 c75:  x214 - x215 - x223 - x226 + x229 - x233 + x236 - x240 + x243 - x247  = 0
 c76:  x264 - x265 - x273 - x276 + x279 - x283 + x286 - x290 + x293 - x297  = 0
 c77:  x314 - x315 - x323 - x326 + x329 - x333 + x336 - x340 + x343 - x347
        = -1
 c78:  x364 - x365 - x373 - x376 + x379 - x383 + x386 - x390 + x393 - x397  = 0
 c79:  x414 - x415 - x423 - x426 + x429 - x433 + x436 - x440 + x443 - x447  = 0
 c80:  x464 - x465 - x473 - x476 + x479 - x483 + x486 - x490 + x493 - x497  = 0
 c81:  - x6 + x12 + x19 - x20 + x23 + x39 + x41 - x43 + x49  = 0
 c82:  - x56 + x62 + x69 - x70 + x73 + x89 + x91 - x93 + x99  = 0
 c83:  - x106 + x112 + x119 - x120 + x123 + x139 + x141 - x143 + x149  = 0
 c84:  - x156 + x162 + x169 - x170 + x173 + x189 + x191 - x193 + x199  = 0
 c85:  - x206 + x212 + x219 - x220 + x223 + x239 + x241 - x243 + x249  = 0
 c86:  - x256 + x262 + x269 - x270 + x273 + x289 + x291 - x293 + x299  = 0
 c87:  - x306 + x312 + x319 - x320 + x323 + x339 + x341 - x343 + x349  = 0
 c88:  - x356 + x362 + x369 - x370 + x373 + x389 + x391 - x393 + x399  = 0
 c89:  - x406 + x412 + x419 - x420 + x423 + x439 + x441 - x443 + x449  = 0
 c90:  - x456 + x462 + x469 - x470 + x473 + x489 + x491 - x493 + x499  = 0
 c91:  - x1 - x3 - x4 + x7 + x11 - x16 - x17 + x18 - x19 + x26 + x30 - x34
       - x36 + x48  = 0
 c92:  - x51 - x53 - x54 + x57 + x61 - x66 - x67 + x68 - x69 + x76 + x80 - x84
       - x86 + x98  = -1
 c93:  - x101 - x103 - x104 + x107 + x111 - x116 - x117 + x118 - x119 + x126
       + x130 - x134 - x136 + x148  = -1
 c94:  - x151 - x153 - x154 + x157 + x161 - x166 - x167 + x168 - x169 + x176
       + x180 - x184 - x186 + x198  = 0
 c95:  - x201 - x203 - x204 + x207 + x211 - x216 - x217 + x218 - x219 + x226
       + x230 - x234 - x236 + x248  = 0
 c96:  - x251 - x253 - x254 + x257 + x261 - x266 - x267 + x268 - x269 + x276
       + x280 - x284 - x286 + x298  = 0
 c97:  - x301 - x303 - x304 + x307 + x311 - x316 - x317 + x318 - x319 + x326
       + x330 - x334 - x336 + x348  = 0
 c98:  - x351 - x353 - x354 + x357 + x361 - x366 - x367 + x368 - x369 + x376
       + x380 - x384 - x386 + x398  = 0
 c99:  - x401 - x403 - x404 + x407 + x411 - x416 - x417 + x418 - x419 + x426
       + x430 - x434 - x436 + x448  = 1
 c100: - x451 - x453 - x454 + x457 + x461 - x466 - x467 + x468 - x469 + x476
       + x480 - x484 - x486 + x498  = 0
 c101: 4 x1 + 4 x51 + 4 x101 + 4 x151 + 4 x201 + 4 x251 + 4 x301 + 4 x351
       + 4 x401 + 4 x451 - 5 x501 <= 0
 c102: 4 x2 + 4 x52 + 4 x102 + 4 x152 + 4 x202 + 4 x252 + 4 x302 + 4 x352
       + 4 x402 + 4 x452 - 5 x502 <= 0
 c103: 4 x3 + 4 x53 + 4 x103 + 4 x153 + 4 x203 + 4 x253 + 4 x303 + 4 x353
       + 4 x403 + 4 x453 - 5 x503 <= 0
 c104: 4 x4 + 4 x54 + 4 x104 + 4 x154 + 4 x204 + 4 x254 + 4 x304 + 4 x354
       + 4 x404 + 4 x454 - 5 x504 <= 0
 c105: 4 x5 + 4 x55 + 4 x105 + 4 x155 + 4 x205 + 4 x255 + 4 x305 + 4 x355
       + 4 x405 + 4 x455 - 5 x505 <= 0
 c106: 4 x6 + 4 x56 + 4 x106 + 4 x156 + 4 x206 + 4 x256 + 4 x306 + 4 x356
       + 4 x406 + 4 x456 - 5 x506 <= 0
 c107: 4 x7 + 4 x57 + 4 x107 + 4 x157 + 4 x207 + 4 x257 + 4 x307 + 4 x357
       + 4 x407 + 4 x457 - 5 x507 <= 0
 c108: 4 x8 + 4 x58 + 4 x108 + 4 x158 + 4 x208 + 4 x258 + 4 x308 + 4 x358
       + 4 x408 + 4 x458 - 5 x508 <= 0
 c109: 4 x9 + 4 x59 + 4 x109 + 4 x159 + 4 x209 + 4 x259 + 4 x309 + 4 x359
       + 4 x409 + 4 x459 - 5 x509 <= 0
 c110: 4 x10 + 4 x60 + 4 x110 + 4 x160 + 4 x210 + 4 x260 + 4 x310 + 4 x360
       + 4 x410 + 4 x460 - 5 x510 <= 0
 c111: 4 x11 + 4 x61 + 4 x111 + 4 x161 + 4 x211 + 4 x261 + 4 x311 + 4 x361
       + 4 x411 + 4 x461 - 5 x511 <= 0
 c112: 4 x12 + 4 x62 + 4 x112 + 4 x162 + 4 x212 + 4 x262 + 4 x312 + 4 x362
       + 4 x412 + 4 x462 - 5 x512 <= 0
 c113: 4 x13 + 4 x63 + 4 x113 + 4 x163 + 4 x213 + 4 x263 + 4 x313 + 4 x363
       + 4 x413 + 4 x463 - 5 x513 <= 0
 c114: 4 x14 + 4 x64 + 4 x114 + 4 x164 + 4 x214 + 4 x264 + 4 x314 + 4 x364
       + 4 x414 + 4 x464 - 5 x514 <= 0
 c115: 4 x15 + 4 x65 + 4 x115 + 4 x165 + 4 x215 + 4 x265 + 4 x315 + 4 x365
       + 4 x415 + 4 x465 - 5 x515 <= 0
 c116: 4 x16 + 4 x66 + 4 x116 + 4 x166 + 4 x216 + 4 x266 + 4 x316 + 4 x366
       + 4 x416 + 4 x466 - 5 x516 <= 0
 c117: 4 x17 + 4 x67 + 4 x117 + 4 x167 + 4 x217 + 4 x267 + 4 x317 + 4 x367
       + 4 x417 + 4 x467 - 5 x517 <= 0
 c118: 4 x18 + 4 x68 + 4 x118 + 4 x168 + 4 x218 + 4 x268 + 4 x318 + 4 x368
       + 4 x418 + 4 x468 - 5 x518 <= 0
 c119: 4 x19 + 4 x69 + 4 x119 + 4 x169 + 4 x219 + 4 x269 + 4 x319 + 4 x369
       + 4 x419 + 4 x469 - 5 x519 <= 0
 c120: 4 x20 + 4 x70 + 4 x120 + 4 x170 + 4 x220 + 4 x270 + 4 x320 + 4 x370
       + 4 x420 + 4 x470 - 5 x520 <= 0
 c121: 4 x21 + 4 x71 + 4 x121 + 4 x171 + 4 x221 + 4 x271 + 4 x321 + 4 x371
       + 4 x421 + 4 x471 - 5 x521 <= 0
 c122: 4 x22 + 4 x72 + 4 x122 + 4 x172 + 4 x222 + 4 x272 + 4 x322 + 4 x372
       + 4 x422 + 4 x472 - 5 x522 <= 0
 c123: 4 x23 + 4 x73 + 4 x123 + 4 x173 + 4 x223 + 4 x273 + 4 x323 + 4 x373
       + 4 x423 + 4 x473 - 5 x523 <= 0
 c124: 4 x24 + 4 x74 + 4 x124 + 4 x174 + 4 x224 + 4 x274 + 4 x324 + 4 x374
       + 4 x424 + 4 x474 - 5 x524 <= 0
 c125: 4 x25 + 4 x75 + 4 x125 + 4 x175 + 4 x225 + 4 x275 + 4 x325 + 4 x375
       + 4 x425 + 4 x475 - 5 x525 <= 0
 c126: 4 x26 + 4 x76 + 4 x126 + 4 x176 + 4 x226 + 4 x276 + 4 x326 + 4 x376
       + 4 x426 + 4 x476 - 5 x526 <= 0
 c127: 4 x27 + 4 x77 + 4 x127 + 4 x177 + 4 x227 + 4 x277 + 4 x327 + 4 x377
       + 4 x427 + 4 x477 - 5 x527 <= 0
 c128: 4 x28 + 4 x78 + 4 x128 + 4 x178 + 4 x228 + 4 x278 + 4 x328 + 4 x378
       + 4 x428 + 4 x478 - 5 x528 <= 0
 c129: 4 x29 + 4 x79 + 4 x129 + 4 x179 + 4 x229 + 4 x279 + 4 x329 + 4 x379
       + 4 x429 + 4 x479 - 5 x529 <= 0
 c130: 4 x30 + 4 x80 + 4 x130 + 4 x180 + 4 x230 + 4 x280 + 4 x330 + 4 x380
       + 4 x430 + 4 x480 - 5 x530 <= 0
 c131: 4 x31 + 4 x81 + 4 x131 + 4 x181 + 4 x231 + 4 x281 + 4 x331 + 4 x381
       + 4 x431 + 4 x481 - 5 x531 <= 0
 c132: 4 x32 + 4 x82 + 4 x132 + 4 x182 + 4 x232 + 4 x282 + 4 x332 + 4 x382
       + 4 x432 + 4 x482 - 5 x532 <= 0
 c133: 4 x33 + 4 x83 + 4 x133 + 4 x183 + 4 x233 + 4 x283 + 4 x333 + 4 x383
       + 4 x433 + 4 x483 - 5 x533 <= 0
 c134: 4 x34 + 4 x84 + 4 x134 + 4 x184 + 4 x234 + 4 x284 + 4 x334 + 4 x384
       + 4 x434 + 4 x484 - 5 x534 <= 0
 c135: 4 x35 + 4 x85 + 4 x135 + 4 x185 + 4 x235 + 4 x285 + 4 x335 + 4 x385
       + 4 x435 + 4 x485 - 5 x535 <= 0
 c136: 4 x36 + 4 x86 + 4 x136 + 4 x186 + 4 x236 + 4 x286 + 4 x336 + 4 x386
       + 4 x436 + 4 x486 - 5 x536 <= 0
 c137: 4 x37 + 4 x87 + 4 x137 + 4 x187 + 4 x237 + 4 x287 + 4 x337 + 4 x387
       + 4 x437 + 4 x487 - 5 x537 <= 0
 c138: 4 x38 + 4 x88 + 4 x138 + 4 x188 + 4 x238 + 4 x288 + 4 x338 + 4 x388
       + 4 x438 + 4 x488 - 5 x538 <= 0
 c139: 4 x39 + 4 x89 + 4 x139 + 4 x189 + 4 x239 + 4 x289 + 4 x339 + 4 x389
       + 4 x439 + 4 x489 - 5 x539 <= 0
 c140: 4 x40 + 4 x90 + 4 x140 + 4 x190 + 4 x240 + 4 x290 + 4 x340 + 4 x390
       + 4 x440 + 4 x490 - 5 x540 <= 0
 c141: 4 x41 + 4 x91 + 4 x141 + 4 x191 + 4 x241 + 4 x291 + 4 x341 + 4 x391
       + 4 x441 + 4 x491 - 5 x541 <= 0
 c142: 4 x42 + 4 x92 + 4 x142 + 4 x192 + 4 x242 + 4 x292 + 4 x342 + 4 x392
       + 4 x442 + 4 x492 - 5 x542 <= 0
 c143: 4 x43 + 4 x93 + 4 x143 + 4 x193 + 4 x243 + 4 x293 + 4 x343 + 4 x393
       + 4 x443 + 4 x493 - 5 x543 <= 0
 c144: 4 x44 + 4 x94 + 4 x144 + 4 x194 + 4 x244 + 4 x294 + 4 x344 + 4 x394
       + 4 x444 + 4 x494 - 5 x544 <= 0
 c145: 4 x45 + 4 x95 + 4 x145 + 4 x195 + 4 x245 + 4 x295 + 4 x345 + 4 x395
       + 4 x445 + 4 x495 - 5 x545 <= 0
 c146: 4 x46 + 4 x96 + 4 x146 + 4 x196 + 4 x246 + 4 x296 + 4 x346 + 4 x396
       + 4 x446 + 4 x496 - 5 x546 <= 0
 c147: 4 x47 + 4 x97 + 4 x147 + 4 x197 + 4 x247 + 4 x297 + 4 x347 + 4 x397
       + 4 x447 + 4 x497 - 5 x547 <= 0
 c148: 4 x48 + 4 x98 + 4 x148 + 4 x198 + 4 x248 + 4 x298 + 4 x348 + 4 x398
       + 4 x448 + 4 x498 - 5 x548 <= 0
 c149: 4 x49 + 4 x99 + 4 x149 + 4 x199 + 4 x249 + 4 x299 + 4 x349 + 4 x399
       + 4 x449 + 4 x499 - 5 x549 <= 0
 c150: 4 x50 + 4 x100 + 4 x150 + 4 x200 + 4 x250 + 4 x300 + 4 x350 + 4 x400
       + 4 x450 + 4 x500 - 5 x550 <= 0
Bounds
 0 <= x1 <= 1
 0 <= x2 <= 1
 0 <= x3 <= 1
 0 <= x4 <= 1
 0 <= x5 <= 1
 0 <= x6 <= 1
 0 <= x7 <= 1
 0 <= x8 <= 1
 0 <= x9 <= 1
 0 <= x10 <= 1
 0 <= x11 <= 1
 0 <= x12 <= 1
 0 <= x13 <= 1
 0 <= x14 <= 1
 0 <= x15 <= 1
 0 <= x16 <= 1
 0 <= x17 <= 1
 0 <= x18 <= 1
 0 <= x19 <= 1
 0 <= x20 <= 1
 0 <= x21 <= 1
 0 <= x22 <= 1
 0 <= x23 <= 1
 0 <= x24 <= 1
 0 <= x25 <= 1
 0 <= x26 <= 1
 0 <= x27 <= 1
 0 <= x28 <= 1
 0 <= x29 <= 1
 0 <= x30 <= 1
 0 <= x31 <= 1
 0 <= x32 <= 1
 0 <= x33 <= 1
 0 <= x34 <= 1
 0 <= x35 <= 1
 0 <= x36 <= 1
 0 <= x37 <= 1
 0 <= x38 <= 1
 0 <= x39 <= 1
 0 <= x40 <= 1
 0 <= x41 <= 1
 0 <= x42 <= 1
 0 <= x43 <= 1
 0 <= x44 <= 1
 0 <= x45 <= 1
 0 <= x46 <= 1
 0 <= x47 <= 1
 0 <= x48 <= 1
 0 <= x49 <= 1
 0 <= x50 <= 1
 0 <= x51 <= 1
 0 <= x52 <= 1
 0 <= x53 <= 1
 0 <= x54 <= 1
 0 <= x55 <= 1
 0 <= x56 <= 1
 0 <= x57 <= 1
 0 <= x58 <= 1
 0 <= x59 <= 1
 0 <= x60 <= 1
 0 <= x61 <= 1
 0 <= x62 <= 1
 0 <= x63 <= 1
 0 <= x64 <= 1
 0 <= x65 <= 1
 0 <= x66 <= 1
 0 <= x67 <= 1
 0 <= x68 <= 1
 0 <= x69 <= 1
 0 <= x70 <= 1
 0 <= x71 <= 1
 0 <= x72 <= 1
 0 <= x73 <= 1
 0 <= x74 <= 1
 0 <= x75 <= 1
 0 <= x76 <= 1
 0 <= x77 <= 1
 0 <= x78 <= 1
 0 <= x79 <= 1
 0 <= x80 <= 1
 0 <= x81 <= 1
 0 <= x82 <= 1
 0 <= x83 <= 1
 0 <= x84 <= 1
 0 <= x85 <= 1
 0 <= x86 <= 1
 0 <= x87 <= 1
 0 <= x88 <= 1
 0 <= x89 <= 1
 0 <= x90 <= 1
 0 <= x91 <= 1
 0 <= x92 <= 1
 0 <= x93 <= 1
 0 <= x94 <= 1
 0 <= x95 <= 1
 0 <= x96 <= 1
 0 <= x97 <= 1
 0 <= x98 <= 1
 0 <= x99 <= 1
 0 <= x100 <= 1
 0 <= x101 <= 1
 0 <= x102 <= 1
 0 <= x103 <= 1
 0 <= x104 <= 1
 0 <= x105 <= 1
 0 <= x106 <= 1
 0 <= x107 <= 1
 0 <= x108 <= 1
 0 <= x109 <= 1
 0 <= x110 <= 1
 0 <= x111 <= 1
 0 <= x112 <= 1
 0 <= x113 <= 1
 0 <= x114 <= 1
 0 <= x115 <= 1
 0 <= x116 <= 1
 0 <= x117 <= 1
 0 <= x118 <= 1
 0 <= x119 <= 1
 0 <= x120 <= 1
 0 <= x121 <= 1
 0 <= x122 <= 1
 0 <= x123 <= 1
 0 <= x124 <= 1
 0 <= x125 <= 1
 0 <= x126 <= 1
 0 <= x127 <= 1
 0 <= x128 <= 1
 0 <= x129 <= 1
 0 <= x130 <= 1
 0 <= x131 <= 1
 0 <= x132 <= 1
 0 <= x133 <= 1
 0 <= x134 <= 1
 0 <= x135 <= 1
 0 <= x136 <= 1
 0 <= x137 <= 1
 0 <= x138 <= 1
 0 <= x139 <= 1
 0 <= x140 <= 1
 0 <= x141 <= 1
 0 <= x142 <= 1
 0 <= x143 <= 1
 0 <= x144 <= 1
 0 <= x145 <= 1
 0 <= x146 <= 1
 0 <= x147 <= 1
 0 <= x148 <= 1
 0 <= x149 <= 1
 0 <= x150 <= 1
 0 <= x151 <= 1
 0 <= x152 <= 1
 0 <= x153 <= 1
 0 <= x154 <= 1
 0 <= x155 <= 1
 0 <= x156 <= 1
 0 <= x157 <= 1
 0 <= x158 <= 1
 0 <= x159 <= 1
 0 <= x160 <= 1
 0 <= x161 <= 1
 0 <= x162 <= 1
 0 <= x163 <= 1
 0 <= x164 <= 1
 0 <= x165 <= 1
 0 <= x166 <= 1
 0 <= x167 <= 1
 0 <= x168 <= 1
 0 <= x169 <= 1
 0 <= x170 <= 1
 0 <= x171 <= 1
 0 <= x172 <= 1
 0 <= x173 <= 1
 0 <= x174 <= 1
 0 <= x175 <= 1
 0 <= x176 <= 1
 0 <= x177 <= 1
 0 <= x178 <= 1
 0 <= x179 <= 1
 0 <= x180 <= 1
 0 <= x181 <= 1
 0 <= x182 <= 1
 0 <= x183 <= 1
 0 <= x184 <= 1
 0 <= x185 <= 1
 0 <= x186 <= 1
 0 <= x187 <= 1
 0 <= x188 <= 1
 0 <= x189 <= 1
 0 <= x190 <= 1
 0 <= x191 <= 1
 0 <= x192 <= 1
 0 <= x193 <= 1
 0 <= x194 <= 1
 0 <= x195 <= 1
 0 <= x196 <= 1
 0 <= x197 <= 1
 0 <= x198 <= 1
 0 <= x199 <= 1
 0 <= x200 <= 1
 0 <= x201 <= 1
 0 <= x202 <= 1
 0 <= x203 <= 1
 0 <= x204 <= 1
 0 <= x205 <= 1
 0 <= x206 <= 1
 0 <= x207 <= 1
 0 <= x208 <= 1
 0 <= x209 <= 1
 0 <= x210 <= 1
 0 <= x211 <= 1
 0 <= x212 <= 1
 0 <= x213 <= 1
 0 <= x214 <= 1
 0 <= x215 <= 1
 0 <= x216 <= 1
 0 <= x217 <= 1
 0 <= x218 <= 1
 0 <= x219 <= 1
 0 <= x220 <= 1
 0 <= x221 <= 1
 0 <= x222 <= 1
 0 <= x223 <= 1
 0 <= x224 <= 1
 0 <= x225 <= 1
 0 <= x226 <= 1
 0 <= x227 <= 1
 0 <= x228 <= 1
 0 <= x229 <= 1
 0 <= x230 <= 1
 0 <= x231 <= 1
 0 <= x232 <= 1
 0 <= x233 <= 1
 0 <= x234 <= 1
 0 <= x235 <= 1
 0 <= x236 <= 1
 0 <= x237 <= 1
 0 <= x238 <= 1
 0 <= x239 <= 1
 0 <= x240 <= 1
 0 <= x241 <= 1
 0 <= x242 <= 1
 0 <= x243 <= 1
 0 <= x244 <= 1
 0 <= x245 <= 1
 0 <= x246 <= 1
 0 <= x247 <= 1
 0 <= x248 <= 1
 0 <= x249 <= 1
 0 <= x250 <= 1
 0 <= x251 <= 1
 0 <= x252 <= 1
 0 <= x253 <= 1
 0 <= x254 <= 1
 0 <= x255 <= 1
 0 <= x256 <= 1
 0 <= x257 <= 1
 0 <= x258 <= 1
 0 <= x259 <= 1
 0 <= x260 <= 1
 0 <= x261 <= 1
 0 <= x262 <= 1
 0 <= x263 <= 1
 0 <= x264 <= 1
 0 <= x265 <= 1
 0 <= x266 <= 1
 0 <= x267 <= 1
 0 <= x268 <= 1
 0 <= x269 <= 1
 0 <= x270 <= 1
 0 <= x271 <= 1
 0 <= x272 <= 1
 0 <= x273 <= 1
 0 <= x274 <= 1
 0 <= x275 <= 1
 0 <= x276 <= 1
 0 <= x277 <= 1
 0 <= x278 <= 1
 0 <= x279 <= 1
 0 <= x280 <= 1
 0 <= x281 <= 1
 0 <= x282 <= 1
 0 <= x283 <= 1
 0 <= x284 <= 1
 0 <= x285 <= 1
 0 <= x286 <= 1
 0 <= x287 <= 1
 0 <= x288 <= 1
 0 <= x289 <= 1
 0 <= x290 <= 1
 0 <= x291 <= 1
 0 <= x292 <= 1
 0 <= x293 <= 1
 0 <= x294 <= 1
 0 <= x295 <= 1
 0 <= x296 <= 1
 0 <= x297 <= 1
 0 <= x298 <= 1
 0 <= x299 <= 1
 0 <= x300 <= 1
 0 <= x301 <= 1
 0 <= x302 <= 1
 0 <= x303 <= 1
 0 <= x304 <= 1
 0 <= x305 <= 1
 0 <= x306 <= 1
 0 <= x307 <= 1
 0 <= x308 <= 1
 0 <= x309 <= 1
 0 <= x310 <= 1
 0 <= x311 <= 1
 0 <= x312 <= 1
 0 <= x313 <= 1
 0 <= x314 <= 1
 0 <= x315 <= 1
 0 <= x316 <= 1
 0 <= x317 <= 1
 0 <= x318 <= 1
 0 <= x319 <= 1
 0 <= x320 <= 1
 0 <= x321 <= 1
 0 <= x322 <= 1
 0 <= x323 <= 1
 0 <= x324 <= 1
 0 <= x325 <= 1
 0 <= x326 <= 1
 0 <= x327 <= 1
 0 <= x328 <= 1
 0 <= x329 <= 1
 0 <= x330 <= 1
 0 <= x331 <= 1
 0 <= x332 <= 1
 0 <= x333 <= 1
 0 <= x334 <= 1
 0 <= x335 <= 1
 0 <= x336 <= 1
 0 <= x337 <= 1
 0 <= x338 <= 1
 0 <= x339 <= 1
 0 <= x340 <= 1
 0 <= x341 <= 1
 0 <= x342 <= 1
 0 <= x343 <= 1
 0 <= x344 <= 1
 0 <= x345 <= 1
 0 <= x346 <= 1
 0 <= x347 <= 1
 0 <= x348 <= 1
 0 <= x349 <= 1
 0 <= x350 <= 1
 0 <= x351 <= 1
 0 <= x352 <= 1
 0 <= x353 <= 1
 0 <= x354 <= 1
 0 <= x355 <= 1
 0 <= x356 <= 1
 0 <= x357 <= 1
 0 <= x358 <= 1
 0 <= x359 <= 1
 0 <= x360 <= 1
 0 <= x361 <= 1
 0 <= x362 <= 1
 0 <= x363 <= 1
 0 <= x364 <= 1
 0 <= x365 <= 1
 0 <= x366 <= 1
 0 <= x367 <= 1
 0 <= x368 <= 1
 0 <= x369 <= 1
 0 <= x370 <= 1
 0 <= x371 <= 1
 0 <= x372 <= 1
 0 <= x373 <= 1
 0 <= x374 <= 1
 0 <= x375 <= 1
 0 <= x376 <= 1
 0 <= x377 <= 1
 0 <= x378 <= 1
 0 <= x379 <= 1
 0 <= x380 <= 1
 0 <= x381 <= 1
 0 <= x382 <= 1
 0 <= x383 <= 1
 0 <= x384 <= 1
 0 <= x385 <= 1
 0 <= x386 <= 1
 0 <= x387 <= 1
 0 <= x388 <= 1
 0 <= x389 <= 1
 0 <= x390 <= 1
 0 <= x391 <= 1
 0 <= x392 <= 1
 0 <= x393 <= 1
 0 <= x394 <= 1
 0 <= x395 <= 1
 0 <= x396 <= 1
 0 <= x397 <= 1
 0 <= x398 <= 1
 0 <= x399 <= 1
 0 <= x400 <= 1
 0 <= x401 <= 1
 0 <= x402 <= 1
 0 <= x403 <= 1
 0 <= x404 <= 1
 0 <= x405 <= 1
 0 <= x406 <= 1
 0 <= x407 <= 1
 0 <= x408 <= 1
 0 <= x409 <= 1
 0 <= x410 <= 1
 0 <= x411 <= 1
 0 <= x412 <= 1
 0 <= x413 <= 1
 0 <= x414 <= 1
 0 <= x415 <= 1
 0 <= x416 <= 1
 0 <= x417 <= 1
 0 <= x418 <= 1
 0 <= x419 <= 1
 0 <= x420 <= 1
 0 <= x421 <= 1
 0 <= x422 <= 1
 0 <= x423 <= 1
 0 <= x424 <= 1
 0 <= x425 <= 1
 0 <= x426 <= 1
 0 <= x427 <= 1
 0 <= x428 <= 1
 0 <= x429 <= 1
 0 <= x430 <= 1
 0 <= x431 <= 1
 0 <= x432 <= 1
 0 <= x433 <= 1
 0 <= x434 <= 1
 0 <= x435 <= 1
 0 <= x436 <= 1
 0 <= x437 <= 1
 0 <= x438 <= 1
 0 <= x439 <= 1
 0 <= x440 <= 1
 0 <= x441 <= 1
 0 <= x442 <= 1
 0 <= x443 <= 1
 0 <= x444 <= 1
 0 <= x445 <= 1
 0 <= x446 <= 1
 0 <= x447 <= 1
 0 <= x448 <= 1
 0 <= x449 <= 1
 0 <= x450 <= 1
 0 <= x451 <= 1
 0 <= x452 <= 1
 0 <= x453 <= 1
 0 <= x454 <= 1
 0 <= x455 <= 1
 0 <= x456 <= 1
 0 <= x457 <= 1
 0 <= x458 <= 1
 0 <= x459 <= 1
 0 <= x460 <= 1
 0 <= x461 <= 1
 0 <= x462 <= 1
 0 <= x463 <= 1
 0 <= x464 <= 1
 0 <= x465 <= 1
 0 <= x466 <= 1
 0 <= x467 <= 1
 0 <= x468 <= 1
 0 <= x469 <= 1
 0 <= x470 <= 1
 0 <= x471 <= 1
 0 <= x472 <= 1
 0 <= x473 <= 1
 0 <= x474 <= 1
 0 <= x475 <= 1
 0 <= x476 <= 1
 0 <= x477 <= 1
 0 <= x478 <= 1
 0 <= x479 <= 1
 0 <= x480 <= 1
 0 <= x481 <= 1
 0 <= x482 <= 1
 0 <= x483 <= 1
 0 <= x484 <= 1
 0 <= x485 <= 1
 0 <= x486 <= 1
 0 <= x487 <= 1
 0 <= x488 <= 1
 0 <= x489 <= 1
 0 <= x490 <= 1
 0 <= x491 <= 1
 0 <= x492 <= 1
 0 <= x493 <= 1
 0 <= x494 <= 1
 0 <= x495 <= 1
 0 <= x496 <= 1
 0 <= x497 <= 1
 0 <= x498 <= 1
 0 <= x499 <= 1
 0 <= x500 <= 1
 0 <= x501 <= 1
 0 <= x502 <= 1
 0 <= x503 <= 1
 0 <= x504 <= 1
 0 <= x505 <= 1
 0 <= x506 <= 1
 0 <= x507 <= 1
 0 <= x508 <= 1
 0 <= x509 <= 1
 0 <= x510 <= 1
 0 <= x511 <= 1
 0 <= x512 <= 1
 0 <= x513 <= 1
 0 <= x514 <= 1
 0 <= x515 <= 1
 0 <= x516 <= 1
 0 <= x517 <= 1
 0 <= x518 <= 1
 0 <= x519 <= 1
 0 <= x520 <= 1
 0 <= x521 <= 1
 0 <= x522 <= 1
 0 <= x523 <= 1
 0 <= x524 <= 1
 0 <= x525 <= 1
 0 <= x526 <= 1
 0 <= x527 <= 1
 0 <= x528 <= 1
 0 <= x529 <= 1
 0 <= x530 <= 1
 0 <= x531 <= 1
 0 <= x532 <= 1
 0 <= x533 <= 1
 0 <= x534 <= 1
 0 <= x535 <= 1
 0 <= x536 <= 1
 0 <= x537 <= 1
 0 <= x538 <= 1
 0 <= x539 <= 1
 0 <= x540 <= 1
 0 <= x541 <= 1
 0 <= x542 <= 1
 0 <= x543 <= 1
 0 <= x544 <= 1
 0 <= x545 <= 1
 0 <= x546 <= 1
 0 <= x547 <= 1
 0 <= x548 <= 1
 0 <= x549 <= 1
 0 <= x550 <= 1
Binaries
 x501  x502  x503  x504  x505  x506  x507  x508  x509  x510  x511  x512  x513 
 x514  x515  x516  x517  x518  x519  x520  x521  x522  x523  x524  x525  x526 
 x527  x528  x529  x530  x531  x532  x533  x534  x535  x536  x537  x538  x539 
 x540  x541  x542  x543  x544  x545  x546  x547  x548  x549  x550 
End
